; benchmark generated from python API
(set-info :status unknown)
(declare-fun S_3 () Real)
(declare-fun S_4 () Real)
(declare-fun C () Real)
(declare-fun S_5 () Real)
(declare-fun S_0 () Real)
(declare-fun S_1 () Real)
(declare-fun S_2 () Real)
(declare-fun A_1 () Real)
(declare-fun B () Real)
(declare-fun A_4 () Real)
(declare-fun A_3 () Real)
(declare-fun L0 () Real)
(declare-fun A_2 () Real)
(declare-fun A_5 () Real)
(declare-fun L_0 () Real)
(declare-fun A_0 () Real)
(assert
 (let ((?x1049 (* (- 1.0) S_0)))
 (let ((?x653 (* (- 1.0) B)))
 (let ((?x595 (* (- 1.0) A_4)))
 (let ((?x901 (* (- 2.0) C)))
 (let ((?x380 (* (- 1.0) S_1)))
 (let ((?x599 (* (- 1.0) A_3)))
 (let ((?x279 (* (- 1.0) C)))
 (let (($x42 (>= L0 0.0)))
 (let (($x650 (>= C 5.0)))
 (let (($x676 (>= B 5.0)))
 (let ((?x257 (* (- 1.0) S_3)))
 (let ((?x591 (* (- 1.0) A_5)))
 (let (($x64944 (<= 0.0 (+ C (* (- 1.0) A_2) A_1 ?x653))))
 (let (($x65447 (not $x64944)))
 (let (($x141820 (or $x65447 (<= (+ ?x653 ?x279 A_4 ?x591 ?x599 ?x257 S_5 A_2) 0.0))))
 (let ((?x275 (* (- 1.0) S_2)))
 (let ((?x2030 (* (- 2.0) B)))
 (let (($x76678 (<= (+ ?x2030 (* (- 3.0) C) A_4 ?x591 A_1 ?x599 ?x1049 S_5) 0.0)))
 (let (($x65814 (<= (+ ?x279 A_3 (* (- 1.0) A_2)) 0.0)))
 (let (($x66386 (not $x65814)))
 (let (($x66065 (<= (+ (* 2.0 C) A_1 ?x653 ?x591 (* (- 1.0) S_4) S_5) 0.0)))
 (let (($x15895 (<= (+ A_3 ?x591 (* (- 1.0) S_4) S_5) 0.0)))
 (let (($x140274 (or $x65447 $x65814 (<= (+ C A_2 ?x591 (* (- 1.0) S_4) S_5) 0.0))))
 (let ((?x603 (* (- 1.0) A_2)))
 (let ((?x683 (* (- 3.0) C)))
 (let (($x68494 (<= (+ ?x279 ?x595 A_3 (* (- 1.0) S_4) S_5) 0.0)))
 (let (($x67302 (<= (+ (* 4.0 C) S_0 (* (- 1.0) S_5)) 0.0)))
 (let (($x66444 (<= 0.0 (+ C ?x595 A_3))))
 (let (($x66729 (not $x66444)))
 (let (($x66408 (<= (+ C (* (- 1.0) A_1) A_4 B S_0 (* (- 1.0) S_5)) 0.0)))
 (let (($x561 (<= (+ ?x279 A_2 (* (- 1.0) A_1)) 0.0)))
 (let (($x66178 (not $x561)))
 (let (($x8176 (<= (+ A_1 (* (- 1.0) L_0) ?x653 ?x275) 0.0)))
 (let (($x67379 (<= (+ (* 2.0 C) B A_4 ?x599 S_1 (* (- 1.0) S_5)) 0.0)))
 (let (($x67297 (<= (+ (* 3.0 C) S_1 (* (- 1.0) S_5)) 0.0)))
 (let (($x65919 (<= (+ ?x901 (* (- 1.0) A_1) A_3) 0.0)))
 (let (($x67431 (<= (+ (* 2.0 C) S_2 (* (- 1.0) S_5)) 0.0)))
 (let (($x65775 (<= (+ C B A_4 ?x599 S_2 (* (- 1.0) S_5)) 0.0)))
 (let (($x67773 (<= (+ (* 2.0 C) A_1 (* (- 1.0) L_0) ?x653 (* (- 1.0) S_4)) 0.0)))
 (let (($x67792 (not $x67773)))
 (let (($x24054 (<= (+ A_4 B (* (- 1.0) A_1) S_1 (* (- 1.0) S_5)) 0.0)))
 (let (($x67617 (<= (+ C ?x603 L_0 B S_1) 0.0)))
 (let (($x1164 (<= (+ A_4 (* (- 1.0) L_0) (* (- 1.0) S_5)) 0.0)))
 (let (($x71732 (<= (+ ?x279 (* (- 1.0) A_1) A_4 B S_2 (* (- 1.0) S_5)) 0.0)))
 (let (($x67081 (not $x65919)))
 (let (($x66701 (<= (+ ?x279 B A_4 ?x599) 0.0)))
 (let (($x66717 (not $x66701)))
 (let (($x140113 (or $x1164 $x66178 $x66386 $x66408 $x66729 (not (<= (+ ?x683 (* (- 1.0) A_1) A_4 B) 0.0)))))
 (let (($x140042 (or $x1164 $x66178 $x66701 $x66729 $x67431 (not (<= (+ (* 3.0 C) ?x595 ?x653 A_1) 0.0)))))
 (let (($x68314 (<= (+ (* 3.0 C) ?x595 ?x653 A_1) 0.0)))
 (let (($x66449 (<= (+ C S_3 (* (- 1.0) S_5)) 0.0)))
 (let (($x63340 (<= (+ ?x901 (* (- 1.0) A_1) A_4 B S_3 (* (- 1.0) S_5)) 0.0)))
 (let (($x139863 (or $x64944 $x68494 (<= (+ C A_1 ?x595 ?x653 (* (- 1.0) S_4) S_5) 0.0))))
 (let (($x65985 (<= (+ (* 3.0 C) B A_4 ?x599 S_0 (* (- 1.0) S_5)) 0.0)))
 (let ((?x614 (* (- 1.0) S_5)))
 (let ((?x607 (* (- 1.0) A_1)))
 (let ((?x717 (* 2.0 C)))
 (let ((?x2036 (* 2.0 B)))
 (let (($x65370 (<= 0.0 (+ C B ?x599 A_2))))
 (let (($x138213 (or $x65370 $x65447 $x66717 (<= (+ ?x2036 ?x717 A_4 ?x599 ?x607 S_0 A_2 ?x614) 0.0))))
 (let (($x74452 (<= (+ ?x2030 (* (- 4.0) C) ?x595 A_3 A_1 ?x1049 ?x603 S_5) 0.0)))
 (let (($x140688 (or $x65370 $x65447 $x66717 (<= (+ ?x2036 C A_4 ?x599 ?x607 S_1 A_2 ?x614) 0.0))))
 (let (($x70961 (<= (+ C ?x607 B A_3 (* (- 1.0) S_4) S_0) 0.0)))
 (let (($x67736 (<= (+ ?x717 A_2 B ?x607 (* (- 1.0) S_4) S_0) 0.0)))
 (let (($x65408 (<= (+ ?x279 ?x603 B A_3) 0.0)))
 (let (($x430 (<= (+ (* 3.0 C) (* (- 1.0) S_4) S_0) 0.0)))
 (let (($x70989 (<= (+ ?x717 ?x607 B A_3 S_0 ?x614) 0.0)))
 (let (($x71443 (<= (+ ?x279 ?x607 B A_3 S_2 (* (- 1.0) S_4)) 0.0)))
 (let (($x65518 (<= (+ C S_2 (* (- 1.0) S_4)) 0.0)))
 (let (($x66903 (<= (+ ?x717 S_1 (* (- 1.0) S_4)) 0.0)))
 (let (($x1501 (<= (+ A_3 ?x607 B S_1 (* (- 1.0) S_4)) 0.0)))
 (let (($x66041 (<= (+ C A_3 ?x607 B S_1 ?x614) 0.0)))
 (let (($x67540 (<= (+ (* 3.0 C) A_2 B ?x607 S_0 ?x614) 0.0)))
 (let (($x68527 (<= 0.0 (+ ?x279 A_4 ?x599))))
 (let (($x64831 (<= (+ ?x683 ?x607 A_4 B) 0.0)))
 (let (($x2989 (<= (+ ?x603 A_4 B S_2 ?x614) 0.0)))
 (let (($x68145 (<= 0.0 (+ ?x717 A_2 ?x595))))
 (let (($x68636 (not $x68145)))
 (let (($x67449 (not $x65370)))
 (let (($x72917 (<= (+ ?x2030 (* (- 4.0) C) A_4 ?x591 A_1 ?x1049 ?x603 S_5) 0.0)))
 (let (($x139244 (or $x65408 (<= (+ C A_2 ?x653 ?x591 (* (- 1.0) S_4) S_5) 0.0))))
 (let (($x71296 (<= (+ C A_4 B ?x603 S_1 ?x614) 0.0)))
 (let (($x71634 (<= (+ ?x717 A_4 B ?x603 S_0 ?x614) 0.0)))
 (let (($x67615 (<= (+ C A_2 (* (- 1.0) L_0) ?x653 (* (- 1.0) S_4)) 0.0)))
 (let (($x71788 (<= (+ ?x2030 (* (- 4.0) C) A_4 ?x591 A_2 ?x599 ?x1049 S_5) 0.0)))
 (let (($x139361 (or $x561 $x66903 (<= (+ C A_3 B ?x603 S_1 (* (- 1.0) S_4)) 0.0))))
 (let (($x65053 (not $x65408)))
 (let (($x68793 (<= (+ ?x717 A_2 ?x607 B S_1 ?x614) 0.0)))
 (let (($x69093 (<= (+ C A_2 ?x607 B S_1 (* (- 1.0) S_4)) 0.0)))
 (let (($x139003 (or $x561 $x66444 $x67302 (<= (+ (* 3.0 C) ?x603 B A_3 S_0 ?x614) 0.0))))
 (let (($x71327 (or $x561 $x65053 (<= (+ ?x717 ?x603 B A_3 (* (- 1.0) S_4) S_0) 0.0))))
 (let (($x67885 (<= 0.0 (+ C L_0 B ?x603 S_1))))
 (let (($x309 (<= (+ ?x717 S_0 ?x257) 0.0)))
 (let (($x142456 (or $x561 (<= (+ A_3 B ?x603 S_2 (* (- 1.0) S_4)) 0.0) $x65053)))
 (let (($x65446 (<= (+ ?x279 ?x603 A_4 B S_3 ?x614) 0.0)))
 (let (($x2729 (<= (+ ?x595 S_4 ?x257 A_2) 0.0)))
 (let (($x41 (>= L_0 L0)))
 (let (($x131 (>= S_1 S_0)))
 (let (($x134 (>= S_2 S_1)))
 (let (($x137 (>= S_3 S_2)))
 (let (($x140 (>= S_4 S_3)))
 (let (($x143 (>= S_5 S_4)))
 (let (($x145 (>= A_1 A_0)))
 (let (($x146 (>= A_2 A_1)))
 (let (($x147 (>= A_3 A_2)))
 (let (($x148 (>= A_4 A_3)))
 (let (($x149 (>= A_5 A_4)))
 (and (not (<= (+ A_0 (* (- 1.0) L_0)) S_4)) $x149 $x148 $x147 $x146 $x145 $x143 $x140 $x137 $x134 $x131 $x41 (<= (+ ?x279 A_2 ?x653 ?x599 ?x275 S_3) 0.0) (or (<= (+ A_4 ?x599 S_3 ?x614) 0.0) $x66449) (or $x561 $x2729 $x65446 $x66449) $x142456 (or $x64944 (<= (+ C S_1 ?x257) 0.0)) (or $x309 $x64944) (or $x65518 $x65814) (or $x65814 $x66444 $x67431) (or $x309 (<= (+ C A_2 B ?x607 S_0 ?x257) 0.0)) (or $x561 $x67297 (not $x67885)) (or (<= (+ ?x607 L_0 B S_1) 0.0) $x67297 $x67885) $x71327 (or $x15895 $x65053) (<= (+ ?x653 (* (- 4.0) C) A_4 ?x591 ?x380 S_5) 0.0) (<= (+ ?x653 ?x279 A_4 ?x591 (* (- 1.0) S_4) S_5) 0.0) (<= (+ ?x901 A_2 ?x653 ?x599 ?x275 S_4) 0.0) (or $x65814 $x66444 $x67302 $x67540) (or $x65814 $x66444 $x67302 $x68793) (<= (+ ?x683 ?x275 S_4) 0.0) (<= (+ ?x901 ?x603 A_1 ?x653 ?x275 S_4) 0.0) (<= (+ ?x683 ?x603 A_1 ?x653 ?x1049 S_3) 0.0) (or $x430 $x65814 $x67736) (<= (+ ?x683 ?x603 A_1 ?x653 ?x380 S_4) 0.0) $x139003 (or $x561 $x66444 $x67431 (<= (+ C ?x603 B A_3 S_2 ?x614) 0.0)) (<= (+ ?x901 ?x653 ?x595 A_3 ?x275 S_4) 0.0) (or $x561 (<= (+ B A_4 ?x599 S_3 ?x614) 0.0) $x65814 $x66449) (<= (+ (* (- 4.0) C) ?x603 ?x653 A_1 ?x380 S_5) 0.0) (<= (+ (* (- 4.0) C) ?x603 A_1 ?x653 S_4 ?x1049) 0.0) (or $x65814 $x66444 $x67297 $x68793) (or $x65370 $x66903 $x69093) (<= (+ ?x279 ?x603 A_1 ?x653 ?x275 S_3) 0.0) (<= (+ ?x901 ?x603 A_1 ?x653 ?x380 S_3) 0.0) (<= (+ (* (- 5.0) C) ?x603 ?x653 A_1 ?x1049 S_5) 0.0) (or $x65814 $x66903 $x69093) (or $x66729 $x67297 $x67449 $x68145 $x68793) (<= (+ ?x901 A_2 ?x653 ?x599 ?x257 S_5) 0.0) (<= (+ ?x279 A_2 ?x653 ?x599 S_4 ?x257) 0.0) (<= (+ ?x683 A_2 ?x653 ?x599 ?x1049 S_3) 0.0) (<= (+ ?x901 A_2 ?x653 ?x599 ?x380 S_3) 0.0) (<= (+ ?x683 A_2 ?x653 ?x599 ?x380 S_4) 0.0) (<= (+ ?x595 ?x653 A_2 S_4 ?x257) 0.0) (or $x561 $x2989 $x65053 $x66729) (<= (+ ?x901 ?x595 ?x653 A_2 ?x380 S_4) 0.0) (or $x65053 $x68494) (<= (+ ?x683 ?x603 ?x653 A_1 ?x275 S_5) 0.0) (or $x65447 $x66386 $x66444 $x70989) (<= (+ ?x279 ?x599 ?x653 A_1 ?x275 S_4) 0.0) (or $x561 $x65053 $x66444 (<= (+ ?x717 A_3 B ?x603 S_1 ?x614) 0.0)) $x139361 (<= (+ (* (- 4.0) C) A_2 ?x653 ?x599 S_4 ?x1049) 0.0) (<= (+ ?x683 A_2 ?x653 ?x599 ?x275 S_5) 0.0) (<= (+ ?x279 ?x653 ?x595 A_3 S_4 ?x257) 0.0) (<= (+ (* (- 5.0) C) A_2 ?x653 ?x599 ?x1049 S_5) 0.0) (<= (+ (* (- 4.0) C) A_2 ?x653 ?x599 ?x380 S_5) 0.0) (<= (+ ?x279 ?x595 ?x653 A_2 ?x257 S_5) 0.0) (<= (+ ?x683 ?x595 ?x653 A_2 ?x380 S_5) 0.0) (<= (+ (* (- 4.0) C) ?x595 ?x653 A_2 ?x1049 S_5) 0.0) (<= (+ ?x683 ?x595 ?x653 A_2 S_4 ?x1049) 0.0) (<= (+ ?x901 ?x595 ?x653 A_1 ?x380 S_5) 0.0) (<= (+ ?x901 ?x595 ?x653 A_2 ?x275 S_5) 0.0) (or $x66729 $x67302 $x67449 $x67540 $x68145) (<= (+ ?x2030 ?x279 A_4 ?x591 A_2 ?x599 ?x257 S_5) 0.0) (<= (+ ?x2030 ?x683 A_4 ?x591 A_2 ?x380 ?x599 S_5) 0.0) (<= (+ ?x683 A_2 ?x653 ?x591 ?x1049 S_5) 0.0) (or $x561 $x65053 $x66729 $x71296) $x71788 (or $x64944 (<= (+ C A_1 ?x595 ?x653 S_4 ?x257) 0.0)) (<= (+ ?x595 ?x653 A_1 ?x275 S_4) 0.0) (or $x561 $x65446 $x66386 $x66449) (or $x65447 (<= (+ ?x279 ?x599 S_4 ?x257 A_2) 0.0)) (<= (+ ?x2030 ?x901 A_4 ?x591 A_2 ?x275 ?x599 S_5) 0.0) (or $x561 $x65053 $x66729 $x71634) (<= (+ ?x279 ?x595 ?x653 A_2 ?x275 S_4) 0.0) (<= (+ ?x279 A_2 ?x653 ?x591 ?x275 S_5) 0.0) (or (<= (+ A_1 ?x653 ?x599 S_4 ?x257) 0.0) $x64944) (<= (+ ?x901 ?x599 ?x653 A_1 ?x380 S_4) 0.0) (or $x66449 $x67449 (<= (+ ?x279 ?x603 A_4 S_3 ?x614) 0.0)) (or $x24054 $x65447 $x66729 $x67449 $x68636) (or $x67297 $x67615 $x67792) (or $x67297 $x67792 (not (<= (+ ?x279 L_0 B S_4 ?x599) 0.0))) (or $x561 $x67297 (<= (+ ?x279 L_0 B S_4 ?x599) 0.0)) (or $x561 $x2989 $x66701 $x66729 $x67431) (or $x67302 (not $x67615) (not (<= (+ C ?x603 A_1) 0.0))) (or $x561 $x65408 (<= (+ ?x901 ?x603 A_4 B) 0.0) $x66701 $x67302) (or $x561 $x2989 $x66386 $x66729 $x67431) (or $x561 $x65408 $x66386 $x67302 $x71634) (or (<= (+ A_2 ?x595 ?x653 (* (- 1.0) S_4) S_5) 0.0) $x65408) (or $x561 $x65408 $x66386 $x67297 $x71296) (<= (+ (* (- 4.0) C) ?x653 ?x595 A_3 S_4 ?x1049) 0.0) (<= (+ (* (- 5.0) C) ?x653 ?x595 A_3 ?x1049 S_5) 0.0) (or $x65447 (<= (+ ?x901 A_2 ?x599 ?x257 S_5) 0.0)) (or (<= (+ B A_4 ?x599 S_3 ?x614) 0.0) $x65370 $x66449) (or (<= (+ ?x607 B A_3 S_2 ?x614) 0.0) $x66178 $x66444 $x67431) (<= (+ ?x653 ?x901 A_4 ?x591 ?x257 S_5) 0.0) $x139244 (or (<= (+ A_2 ?x595 (* (- 1.0) S_4) S_5) 0.0) $x65447 $x65814) (<= (+ ?x279 ?x595 ?x653 A_1 ?x275 S_5) 0.0) (or $x1164 $x2989 $x64831 $x66701 $x66729 $x67431) (<= (+ ?x2030 ?x683 A_4 ?x591 A_1 ?x380 ?x603 S_5) 0.0) (<= (+ ?x2030 ?x901 A_4 ?x591 A_1 ?x275 ?x603 S_5) 0.0) (<= (+ ?x683 ?x599 ?x653 A_1 S_4 ?x1049) 0.0) (<= (+ ?x901 ?x599 ?x653 A_1 ?x1049 S_3) 0.0) (or $x64944 (<= (+ ?x279 ?x599 A_1 ?x653 ?x257 S_5) 0.0)) (<= (+ ?x683 ?x599 A_1 ?x653 ?x380 S_5) 0.0) (or $x65518 $x66178 $x71443) (or (<= (+ ?x603 A_4 S_2 ?x614) 0.0) $x66701 $x66729 $x67431) (or $x65447 $x67736 $x70961) $x72917 (<= (+ ?x279 ?x595 ?x653 A_1 ?x380 S_4) 0.0) (or $x65447 $x66408 $x66717 $x67449) (or $x65447 $x66408 $x66729 $x67449 $x68636) (or $x65447 (<= (+ ?x279 A_2 ?x595 ?x257 S_5) 0.0)) (or (<= (+ ?x603 A_4 S_2 ?x614) 0.0) $x66717 $x67449) (or $x66444 $x67431 (<= (+ C ?x603 A_3 S_2 ?x614) 0.0)) (or (<= (+ ?x603 A_3 S_2 (* (- 1.0) S_4)) 0.0) $x65518) (<= (+ ?x279 ?x603 ?x653 A_1 S_2 ?x380) 0.0) (<= (+ ?x901 ?x603 ?x653 A_1 S_2 ?x1049) 0.0) (<= (+ ?x599 ?x653 A_1 ?x275 S_3) 0.0) (or (<= (+ A_2 ?x607 B S_1 ?x257) 0.0) $x65447) (or $x65447 $x66041 $x66386 $x66444) (<= (+ ?x683 ?x595 ?x653 A_1 ?x1049 S_5) 0.0) (<= (+ ?x279 ?x653 ?x595 A_3 (* (- 1.0) S_4) S_5) 0.0) (<= (+ (* (- 4.0) C) ?x653 ?x595 A_3 ?x380 S_5) 0.0) (<= (+ ?x683 ?x653 ?x595 A_3 ?x275 S_5) 0.0) (<= (+ ?x279 ?x595 L_0 S_5) 0.0) (or $x2989 $x64831 $x64944 $x66729 $x67302 (not $x68527)) (or $x1164 $x64831 $x64944 $x66178 $x66701 $x67302 $x68527) (<= (+ ?x901 A_1 ?x653 ?x591 ?x1049 S_5) 0.0) (or $x64944 $x65814 $x66065) (or $x65370 $x65447 $x66701 $x67540) (or $x65370 $x65447 $x66701 $x68793) (or $x1501 $x65447 $x66386) (<= (+ ?x901 A_2 ?x653 ?x591 ?x380 S_5) 0.0) (<= (+ A_2 ?x653 ?x591 ?x257 S_5) 0.0) (or (<= (+ A_1 ?x595 ?x653 ?x257 S_5) 0.0) $x64944) (or (<= (+ B A_4 ?x599 S_3 ?x614) 0.0) $x63340 $x65814 $x66449) (or $x64944 $x66408 $x66701 $x67302 (not (<= (+ C A_2 ?x599) 0.0))) (or $x64944 $x66041 $x66178 $x66444 $x67297) (or $x1501 $x64944 $x66178 $x66903) (or $x65408 $x65518 $x71443) (<= (+ (* (- 4.0) C) ?x599 A_1 ?x653 ?x1049 S_5) 0.0) (<= (+ ?x901 ?x653 ?x595 A_3 ?x257 S_5) 0.0) (<= (+ ?x2030 ?x901 ?x595 A_3 A_1 ?x275 ?x603 S_5) 0.0) (or $x64944 $x66178 $x66444 $x67302 $x70989) (or $x430 $x66178 $x67736 $x70961) (or $x430 $x65408 $x67736 $x70961) (or $x24054 $x64944 $x65814 $x66701 $x67297) (or $x64944 (<= (+ C A_1 ?x653 ?x591 ?x257 S_5) 0.0)) $x140688 (<= (+ ?x2030 ?x279 ?x595 A_3 A_1 ?x275 S_4 ?x603) 0.0) $x74452 (<= (+ ?x2030 ?x683 ?x595 A_3 A_1 S_4 ?x1049 ?x603) 0.0) $x138213 (or $x65370 $x65775 $x66717) (<= (+ ?x2030 ?x901 ?x595 A_3 A_1 ?x380 S_4 ?x603) 0.0) (<= (+ ?x2030 ?x683 ?x595 A_3 A_1 ?x380 ?x603 S_5) 0.0) (<= (+ ?x683 ?x653 ?x595 A_3 ?x380 S_4) 0.0) (or $x64944 $x65814 $x65919 $x65985 $x67302) $x139863 (or $x8176 $x63340 $x66178 $x66386 $x66449) (or $x1164 $x63340 $x66178 $x66449 $x66701) (or $x1164 $x66178 $x66701 $x66729 $x68314 $x71732) $x140042 $x140113 (<= (+ ?x653 A_3 ?x591 (* (- 1.0) S_4) S_5) 0.0) (<= (+ ?x683 ?x653 A_3 ?x591 ?x380 S_5) 0.0) (<= (+ ?x279 A_1 ?x653 ?x591 ?x380 S_5) 0.0) (<= (+ L_0 ?x591 S_5) 0.0) (<= (+ ?x279 ?x653 A_3 ?x591 ?x257 S_5) 0.0) (or $x64944 $x66178 $x66408 $x66717 $x67081) (or $x24054 $x64944 $x66178 $x66717 $x67081) (or $x66178 $x66717 $x67081 $x71732) (or $x1164 $x24054 $x66729 $x67297 $x67617) (or $x24054 $x66178 $x66386 $x66729 $x67297 $x67773) (or $x24054 $x67297 $x67792 (not $x67617)) (or $x65775 $x65814 $x65919 $x67431) (<= (+ A_1 ?x653 ?x591 ?x275 S_5) 0.0) (or $x15895 $x65447 $x66386) (<= (+ ?x653 ?x683 A_4 ?x591 ?x275 S_5) 0.0) (<= (+ ?x653 (* (- 5.0) C) A_4 ?x591 ?x1049 S_5) 0.0) (or $x64944 $x65814 $x65919 $x67297 $x67379) (<= (+ ?x901 ?x653 A_3 ?x591 ?x275 S_5) 0.0) (<= (+ (* (- 4.0) C) ?x653 A_3 ?x591 ?x1049 S_5) 0.0) (<= (+ ?x279 ?x2030 A_3 ?x591 A_1 ?x275 ?x603 S_5) 0.0) (<= (+ ?x901 ?x2030 A_3 ?x591 A_1 ?x380 ?x603 S_5) 0.0) (or $x2729 $x65447) (or $x8176 $x66178 $x66386 $x66408 $x66729 $x67302) (or (<= (+ A_2 ?x591 ?x257 S_5) 0.0) $x65447) (or $x65447 $x66386 $x68494) (<= (+ ?x683 ?x2030 A_3 ?x591 A_1 ?x1049 ?x603 S_5) 0.0) $x140274 (or $x15895 $x66065 $x66386) (<= (+ ?x2030 ?x901 A_4 ?x591 A_1 ?x380 ?x599 S_5) 0.0) $x76678 (or (<= (+ ?x2030 A_4 ?x591 A_1 ?x599 ?x257 S_5) 0.0) $x64944) (<= (+ ?x901 ?x599 A_1 ?x653 ?x275 S_5) 0.0) (<= (+ ?x2030 ?x279 A_4 ?x591 A_1 ?x275 ?x599 S_5) 0.0) $x141820 $x676 $x650 $x42 (<= (+ ?x901 S_1 ?x1049) 0.0) (<= (+ ?x901 (* (- 1.0) S_4) S_5) 0.0) (<= (+ ?x901 S_2 ?x380) 0.0) (<= (+ ?x683 S_2 ?x1049) 0.0) (<= (+ ?x279 ?x599 ?x653 A_1 ?x380 S_3) 0.0) (<= (+ ?x901 ?x595 ?x653 A_1 S_4 ?x1049) 0.0) (<= (+ C ?x275 S_0) 0.0) (<= (+ ?x683 ?x257 S_5) 0.0) (<= (+ (* (- 4.0) C) ?x275 S_5) 0.0) (<= (+ (* (- 5.0) C) ?x380 S_5) 0.0) (<= (+ (* (- 4.0) C) ?x1049 S_3) 0.0) (<= (+ ?x901 ?x275 S_3) 0.0) (<= (+ ?x683 ?x380 S_3) 0.0) (<= (+ (* (- 4.0) C) ?x380 S_4) 0.0) (<= (+ (* (- 5.0) C) S_4 ?x1049) 0.0) (<= (+ (* (- 6.0) C) ?x1049 S_5) 0.0) (<= (+ ?x901 S_4 ?x257) 0.0))))))))))))))))))))))))))))))))))))))))))))))))))))))))))))))))))))))))))))))))))))))))))))))))))))))))))))))
(check-sat)
